166779
0,86,43,26,27,75,88,92,11,91,22,8,105,97,30,64,12,87,68,5,39,55,19,15,63,89,16,20,21,61,1,32,72,38,36,48,17,69,93,77,95,59,90,78,42,14,3,102,34,74,31,62,6,52,83,50,99,81,71,44,24,85,76,45,80,41,18,98,67,49,25,33,82,79,56,73,101,23,13,46,60,2,100,104,37,103,10,40,66,94,53,70,35,84,47,51,4,29,28,54,96,7,9,65,58,57
